10
5
1005003
0
0
86 74 66 17 82 
1
0
87 2 63 32 98 
2
0
61 66 30 5 87 
3
0
76 8 47 97 87 
4
0
67 11 27 50 13 
5
0
64 29 1 38 53 
6
0
98 15 99 66 78 
7
0
8 70 52 80 32 
8
0
92 88 60 55 34 
9
0
17 65 65 46 77 
